Test: battleship-16-16-unsat.cnf
Options: -no-inverting-opt -activity-look-freq=1
WARNING: for repeatability, setting FPU to use double precision
============================[ Problem Statistics ]=============================
|                                                                             |
|  Number of symmetries:           17                                         |
|  Number of invertingSyms:         0                                         |
|  Number of variables:           256                                         |
|  Number of clauses:            2176                                         |
|  Parse time:                   0.00 s                                       |
|                                                                             |
============================[ Search Statistics ]==============================
| Conflicts |          ORIGINAL         |          LEARNT          | Progress |
|           |    Vars  Clauses Literals |    Limit  Clauses Lit/Cl |          |
===============================================================================
|       100 |     256     2176     7936 |      797      115     66 |  0.002 % |
|       250 |     256     2176     7936 |      877      276     65 |  0.002 % |
|       475 |     256     2176     7936 |      965      595     61 |  0.002 % |
|       812 |     256     2176     7936 |     1061      516     51 |  0.002 % |
|      1318 |     256     2176     7936 |     1168     1048     59 |  0.002 % |
|      2077 |     256     2176     7936 |     1284      708     52 |  0.002 % |
|      3216 |     256     2176     7936 |     1413     1252     60 |  0.002 % |
|      4924 |     256     2176     7936 |     1554      753     55 |  0.002 % |
|      7486 |     256     2176     7936 |     1710     1003     59 |  0.002 % |
|     11330 |     256     2176     7936 |     1881     1496     65 |  0.002 % |
|     17096 |     256     2176     7936 |     2069     1801     66 |  0.002 % |
|     25745 |     256     2176     7936 |     2276     1567     66 |  0.002 % |
|     38719 |     256     2176     7936 |     2504     2294     63 |  0.002 % |
|     58180 |     256     2176     7936 |     2754     2035     56 |  0.002 % |
|     87372 |     256     2176     7936 |     3029     2536     73 |  0.002 % |
|    131161 |     256     2176     7936 |     3332     1988     56 |  0.002 % |
|    196845 |     256     2176     7936 |     3666     1983     63 |  0.002 % |
|    295371 |     256     2176     7936 |     4032     1955     72 |  0.002 % |
|    443160 |     256     2176     7936 |     4436     3581     64 |  0.002 % |
|    664843 |     256     2176     7936 |     4879     3717     48 |  0.002 % |
|    997368 |     256     2176     7936 |     5367     3307     69 |  0.002 % |
===============================================================================
restarts              : 2333
conflicts             : 1238881        (16155 /sec)
symconflicts          : 10539          (137 /sec)
decisions             : 1903910        (0.00 % random) (24826 /sec)
propagations          : 108910636      (1420164 /sec)
sympropagations       : 75626          (986 /sec)
conflict literals     : 84002554       (6.06 % deleted)
literals     : 84002554       (6.06 % deleted)

HEURISTIC USAGES
random                : 0           
activity w/ lookahead : 1903910     
activity no lookahead : 0           
original sp           : 0           
sym count             : 0           

Memory used           : 13.00 MB
CPU time              : 76.6888 s

UNSATISFIABLE
